NAME CFLP
ROWS
 N  OBJ
 E  demand_1
 E  demand_2
 E  demand_3
 E  demand_4
 E  demand_5
 E  demand_6
 E  demand_7
 E  demand_8
 E  demand_9
 E  demand_10
 E  demand_11
 E  demand_12
 E  demand_13
 E  demand_14
 E  demand_15
 E  demand_16
 E  demand_17
 E  demand_18
 E  demand_19
 E  demand_20
 E  demand_21
 E  demand_22
 E  demand_23
 E  demand_24
 E  demand_25
 E  demand_26
 E  demand_27
 E  demand_28
 E  demand_29
 E  demand_30
 E  demand_31
 E  demand_32
 E  demand_33
 E  demand_34
 E  demand_35
 E  demand_36
 L  c_disjunction_1_diajunct_1
 L  c_disjunction_1_disjunct_2
 E  R38     
 L  c_disjunction_2_diajunct_1
 L  c_disjunction_2_disjunct_2
 E  R41     
 L  c_disjunction_3_diajunct_1
 L  c_disjunction_3_disjunct_2
 E  R44     
 L  c_disjunction_4_diajunct_1
 L  c_disjunction_4_disjunct_2
 E  R47     
 L  c_disjunction_5_diajunct_1
 L  c_disjunction_5_disjunct_2
 E  R50     
 L  c_disjunction_6_diajunct_1
 L  c_disjunction_6_disjunct_2
 E  R53     
 L  c_disjunction_7_diajunct_1
 L  c_disjunction_7_disjunct_2
 E  R56     
 L  c_disjunction_8_diajunct_1
 L  c_disjunction_8_disjunct_2
 E  R59     
 L  c_disjunction_9_diajunct_1
 L  c_disjunction_9_disjunct_2
 E  R62     
 L  c_disjunction_10_diajunct_1
 L  c_disjunction_10_disjunct_2
 E  R65     
 L  c_disjunction_11_diajunct_1
 L  c_disjunction_11_disjunct_2
 E  R68     
 L  c_disjunction_12_diajunct_1
 L  c_disjunction_12_disjunct_2
 E  R71     
 L  c_disjunction_13_diajunct_1
 L  c_disjunction_13_disjunct_2
 E  R74     
 L  c_disjunction_14_diajunct_1
 L  c_disjunction_14_disjunct_2
 E  R77     
 L  c_disjunction_15_diajunct_1
 L  c_disjunction_15_disjunct_2
 E  R80     
 L  c_disjunction_16_diajunct_1
 L  c_disjunction_16_disjunct_2
 E  R83     
 L  c_disjunction_17_diajunct_1
 L  c_disjunction_17_disjunct_2
 E  R86     
 L  c_disjunction_18_diajunct_1
 L  c_disjunction_18_disjunct_2
 E  R89     
 L  c_disjunction_19_diajunct_1
 L  c_disjunction_19_disjunct_2
 E  R92     
 L  c_disjunction_20_diajunct_1
 L  c_disjunction_20_disjunct_2
 E  R95     
 L  c_disjunction_21_diajunct_1
 L  c_disjunction_21_disjunct_2
 E  R98     
 L  c_disjunction_22_diajunct_1
 L  c_disjunction_22_disjunct_2
 E  R101    
 L  c_disjunction_23_diajunct_1
 L  c_disjunction_23_disjunct_2
 E  R104    
 L  c_disjunction_24_diajunct_1
 L  c_disjunction_24_disjunct_2
 E  R107    
 L  c_disjunction_25_diajunct_1
 L  c_disjunction_25_disjunct_2
 E  R110    
 L  c_disjunction_26_diajunct_1
 L  c_disjunction_26_disjunct_2
 E  R113    
 L  c_disjunction_27_diajunct_1
 L  c_disjunction_27_disjunct_2
 E  R116    
 L  c_disjunction_28_diajunct_1
 L  c_disjunction_28_disjunct_2
 E  R119    
 L  c_disjunction_29_diajunct_1
 L  c_disjunction_29_disjunct_2
 E  R122    
 L  c_disjunction_30_diajunct_1
 L  c_disjunction_30_disjunct_2
 E  R125    
 L  c_disjunction_31_diajunct_1
 L  c_disjunction_31_disjunct_2
 E  R128    
 L  c_disjunction_32_diajunct_1
 L  c_disjunction_32_disjunct_2
 E  R131    
 L  c_disjunction_33_diajunct_1
 L  c_disjunction_33_disjunct_2
 E  R134    
 L  c_disjunction_34_diajunct_1
 L  c_disjunction_34_disjunct_2
 E  R137    
 L  c_disjunction_35_diajunct_1
 L  c_disjunction_35_disjunct_2
 E  R140    
 L  c_disjunction_36_diajunct_1
 L  c_disjunction_36_disjunct_2
 E  R143    
COLUMNS
    MARKER    'MARKER'                 'INTORG'
    ind_disjunction_1_disjunct_1  OBJ       1221
    ind_disjunction_1_disjunct_1  c_disjunction_1_diajunct_1  -128
    ind_disjunction_1_disjunct_1  R38       1
    ind_disjunction_2_disjunct_1  OBJ       1221
    ind_disjunction_2_disjunct_1  c_disjunction_2_diajunct_1  -128
    ind_disjunction_2_disjunct_1  R41       1
    ind_disjunction_3_disjunct_1  OBJ       1221
    ind_disjunction_3_disjunct_1  c_disjunction_3_diajunct_1  -128
    ind_disjunction_3_disjunct_1  R44       1
    ind_disjunction_4_disjunct_1  OBJ       1221
    ind_disjunction_4_disjunct_1  c_disjunction_4_diajunct_1  -128
    ind_disjunction_4_disjunct_1  R47       1
    ind_disjunction_5_disjunct_1  OBJ       1221
    ind_disjunction_5_disjunct_1  c_disjunction_5_diajunct_1  -128
    ind_disjunction_5_disjunct_1  R50       1
    ind_disjunction_6_disjunct_1  OBJ       1221
    ind_disjunction_6_disjunct_1  c_disjunction_6_diajunct_1  -128
    ind_disjunction_6_disjunct_1  R53       1
    ind_disjunction_7_disjunct_1  OBJ       1221
    ind_disjunction_7_disjunct_1  c_disjunction_7_diajunct_1  -128
    ind_disjunction_7_disjunct_1  R56       1
    ind_disjunction_8_disjunct_1  OBJ       1221
    ind_disjunction_8_disjunct_1  c_disjunction_8_diajunct_1  -128
    ind_disjunction_8_disjunct_1  R59       1
    ind_disjunction_9_disjunct_1  OBJ       1221
    ind_disjunction_9_disjunct_1  c_disjunction_9_diajunct_1  -128
    ind_disjunction_9_disjunct_1  R62       1
    ind_disjunction_10_disjunct_1  OBJ       1221
    ind_disjunction_10_disjunct_1  c_disjunction_10_diajunct_1  -128
    ind_disjunction_10_disjunct_1  R65       1
    ind_disjunction_11_disjunct_1  OBJ       1221
    ind_disjunction_11_disjunct_1  c_disjunction_11_diajunct_1  -128
    ind_disjunction_11_disjunct_1  R68       1
    ind_disjunction_12_disjunct_1  OBJ       1221
    ind_disjunction_12_disjunct_1  c_disjunction_12_diajunct_1  -128
    ind_disjunction_12_disjunct_1  R71       1
    ind_disjunction_13_disjunct_1  OBJ       1221
    ind_disjunction_13_disjunct_1  c_disjunction_13_diajunct_1  -128
    ind_disjunction_13_disjunct_1  R74       1
    ind_disjunction_14_disjunct_1  OBJ       1221
    ind_disjunction_14_disjunct_1  c_disjunction_14_diajunct_1  -128
    ind_disjunction_14_disjunct_1  R77       1
    ind_disjunction_15_disjunct_1  OBJ       1221
    ind_disjunction_15_disjunct_1  c_disjunction_15_diajunct_1  -128
    ind_disjunction_15_disjunct_1  R80       1
    ind_disjunction_16_disjunct_1  OBJ       1221
    ind_disjunction_16_disjunct_1  c_disjunction_16_diajunct_1  -128
    ind_disjunction_16_disjunct_1  R83       1
    ind_disjunction_17_disjunct_1  OBJ       1221
    ind_disjunction_17_disjunct_1  c_disjunction_17_diajunct_1  -128
    ind_disjunction_17_disjunct_1  R86       1
    ind_disjunction_18_disjunct_1  OBJ       1221
    ind_disjunction_18_disjunct_1  c_disjunction_18_diajunct_1  -128
    ind_disjunction_18_disjunct_1  R89       1
    ind_disjunction_19_disjunct_1  OBJ       1221
    ind_disjunction_19_disjunct_1  c_disjunction_19_diajunct_1  -128
    ind_disjunction_19_disjunct_1  R92       1
    ind_disjunction_20_disjunct_1  OBJ       1221
    ind_disjunction_20_disjunct_1  c_disjunction_20_diajunct_1  -128
    ind_disjunction_20_disjunct_1  R95       1
    ind_disjunction_21_disjunct_1  OBJ       1221
    ind_disjunction_21_disjunct_1  c_disjunction_21_diajunct_1  -128
    ind_disjunction_21_disjunct_1  R98       1
    ind_disjunction_22_disjunct_1  OBJ       1221
    ind_disjunction_22_disjunct_1  c_disjunction_22_diajunct_1  -128
    ind_disjunction_22_disjunct_1  R101      1
    ind_disjunction_23_disjunct_1  OBJ       1221
    ind_disjunction_23_disjunct_1  c_disjunction_23_diajunct_1  -128
    ind_disjunction_23_disjunct_1  R104      1
    ind_disjunction_24_disjunct_1  OBJ       1221
    ind_disjunction_24_disjunct_1  c_disjunction_24_diajunct_1  -128
    ind_disjunction_24_disjunct_1  R107      1
    ind_disjunction_25_disjunct_1  OBJ       1221
    ind_disjunction_25_disjunct_1  c_disjunction_25_diajunct_1  -128
    ind_disjunction_25_disjunct_1  R110      1
    ind_disjunction_26_disjunct_1  OBJ       1221
    ind_disjunction_26_disjunct_1  c_disjunction_26_diajunct_1  -128
    ind_disjunction_26_disjunct_1  R113      1
    ind_disjunction_27_disjunct_1  OBJ       1221
    ind_disjunction_27_disjunct_1  c_disjunction_27_diajunct_1  -128
    ind_disjunction_27_disjunct_1  R116      1
    ind_disjunction_28_disjunct_1  OBJ       1221
    ind_disjunction_28_disjunct_1  c_disjunction_28_diajunct_1  -128
    ind_disjunction_28_disjunct_1  R119      1
    ind_disjunction_29_disjunct_1  OBJ       1221
    ind_disjunction_29_disjunct_1  c_disjunction_29_diajunct_1  -128
    ind_disjunction_29_disjunct_1  R122      1
    ind_disjunction_30_disjunct_1  OBJ       1221
    ind_disjunction_30_disjunct_1  c_disjunction_30_diajunct_1  -128
    ind_disjunction_30_disjunct_1  R125      1
    ind_disjunction_31_disjunct_1  OBJ       1221
    ind_disjunction_31_disjunct_1  c_disjunction_31_diajunct_1  -128
    ind_disjunction_31_disjunct_1  R128      1
    ind_disjunction_32_disjunct_1  OBJ       1221
    ind_disjunction_32_disjunct_1  c_disjunction_32_diajunct_1  -128
    ind_disjunction_32_disjunct_1  R131      1
    ind_disjunction_33_disjunct_1  OBJ       1221
    ind_disjunction_33_disjunct_1  c_disjunction_33_diajunct_1  -128
    ind_disjunction_33_disjunct_1  R134      1
    ind_disjunction_34_disjunct_1  OBJ       1221
    ind_disjunction_34_disjunct_1  c_disjunction_34_diajunct_1  -128
    ind_disjunction_34_disjunct_1  R137      1
    ind_disjunction_35_disjunct_1  OBJ       1221
    ind_disjunction_35_disjunct_1  c_disjunction_35_diajunct_1  -128
    ind_disjunction_35_disjunct_1  R140      1
    ind_disjunction_36_disjunct_1  OBJ       1221
    ind_disjunction_36_disjunct_1  c_disjunction_36_diajunct_1  -128
    ind_disjunction_36_disjunct_1  R143      1
    ind_disjunction_1_disjunct_2  c_disjunction_1_disjunct_2  2
    ind_disjunction_1_disjunct_2  R38       1
    ind_disjunction_2_disjunct_2  c_disjunction_2_disjunct_2  2
    ind_disjunction_2_disjunct_2  R41       1
    ind_disjunction_3_disjunct_2  c_disjunction_3_disjunct_2  3
    ind_disjunction_3_disjunct_2  R44       1
    ind_disjunction_4_disjunct_2  c_disjunction_4_disjunct_2  1
    ind_disjunction_4_disjunct_2  R47       1
    ind_disjunction_5_disjunct_2  c_disjunction_5_disjunct_2  3
    ind_disjunction_5_disjunct_2  R50       1
    ind_disjunction_6_disjunct_2  c_disjunction_6_disjunct_2  3
    ind_disjunction_6_disjunct_2  R53       1
    ind_disjunction_7_disjunct_2  c_disjunction_7_disjunct_2  3
    ind_disjunction_7_disjunct_2  R56       1
    ind_disjunction_8_disjunct_2  c_disjunction_8_disjunct_2  4
    ind_disjunction_8_disjunct_2  R59       1
    ind_disjunction_9_disjunct_2  c_disjunction_9_disjunct_2  4
    ind_disjunction_9_disjunct_2  R62       1
    ind_disjunction_10_disjunct_2  c_disjunction_10_disjunct_2  3
    ind_disjunction_10_disjunct_2  R65       1
    ind_disjunction_11_disjunct_2  c_disjunction_11_disjunct_2  2
    ind_disjunction_11_disjunct_2  R68       1
    ind_disjunction_12_disjunct_2  c_disjunction_12_disjunct_2  2
    ind_disjunction_12_disjunct_2  R71       1
    ind_disjunction_13_disjunct_2  c_disjunction_13_disjunct_2  5
    ind_disjunction_13_disjunct_2  R74       1
    ind_disjunction_14_disjunct_2  c_disjunction_14_disjunct_2  3
    ind_disjunction_14_disjunct_2  R77       1
    ind_disjunction_15_disjunct_2  c_disjunction_15_disjunct_2  4
    ind_disjunction_15_disjunct_2  R80       1
    ind_disjunction_16_disjunct_2  c_disjunction_16_disjunct_2  1
    ind_disjunction_16_disjunct_2  R83       1
    ind_disjunction_17_disjunct_2  c_disjunction_17_disjunct_2  4
    ind_disjunction_17_disjunct_2  R86       1
    ind_disjunction_18_disjunct_2  c_disjunction_18_disjunct_2  1
    ind_disjunction_18_disjunct_2  R89       1
    ind_disjunction_19_disjunct_2  c_disjunction_19_disjunct_2  2
    ind_disjunction_19_disjunct_2  R92       1
    ind_disjunction_20_disjunct_2  c_disjunction_20_disjunct_2  3
    ind_disjunction_20_disjunct_2  R95       1
    ind_disjunction_21_disjunct_2  c_disjunction_21_disjunct_2  1
    ind_disjunction_21_disjunct_2  R98       1
    ind_disjunction_22_disjunct_2  c_disjunction_22_disjunct_2  4
    ind_disjunction_22_disjunct_2  R101      1
    ind_disjunction_23_disjunct_2  c_disjunction_23_disjunct_2  3
    ind_disjunction_23_disjunct_2  R104      1
    ind_disjunction_24_disjunct_2  c_disjunction_24_disjunct_2  4
    ind_disjunction_24_disjunct_2  R107      1
    ind_disjunction_25_disjunct_2  c_disjunction_25_disjunct_2  3
    ind_disjunction_25_disjunct_2  R110      1
    ind_disjunction_26_disjunct_2  c_disjunction_26_disjunct_2  2
    ind_disjunction_26_disjunct_2  R113      1
    ind_disjunction_27_disjunct_2  c_disjunction_27_disjunct_2  2
    ind_disjunction_27_disjunct_2  R116      1
    ind_disjunction_28_disjunct_2  c_disjunction_28_disjunct_2  3
    ind_disjunction_28_disjunct_2  R119      1
    ind_disjunction_29_disjunct_2  c_disjunction_29_disjunct_2  6
    ind_disjunction_29_disjunct_2  R122      1
    ind_disjunction_30_disjunct_2  c_disjunction_30_disjunct_2  2
    ind_disjunction_30_disjunct_2  R125      1
    ind_disjunction_31_disjunct_2  c_disjunction_31_disjunct_2  6
    ind_disjunction_31_disjunct_2  R128      1
    ind_disjunction_32_disjunct_2  c_disjunction_32_disjunct_2  3
    ind_disjunction_32_disjunct_2  R131      1
    ind_disjunction_33_disjunct_2  c_disjunction_33_disjunct_2  6
    ind_disjunction_33_disjunct_2  R134      1
    ind_disjunction_34_disjunct_2  c_disjunction_34_disjunct_2  3
    ind_disjunction_34_disjunct_2  R137      1
    ind_disjunction_35_disjunct_2  c_disjunction_35_disjunct_2  3
    ind_disjunction_35_disjunct_2  R140      1
    ind_disjunction_36_disjunct_2  c_disjunction_36_disjunct_2  2
    ind_disjunction_36_disjunct_2  R143      1
    x[1,1]    demand_1  1
    x[1,1]    c_disjunction_1_diajunct_1  9
    x[1,1]    c_disjunction_1_disjunct_2  1
    x[20,1]   OBJ       4.6
    x[20,1]   demand_1  1
    x[20,1]   c_disjunction_20_diajunct_1  9
    x[20,1]   c_disjunction_20_disjunct_2  1
    x[9,1]    OBJ       12.6
    x[9,1]    demand_1  1
    x[9,1]    c_disjunction_9_diajunct_1  9
    x[9,1]    c_disjunction_9_disjunct_2  1
    x[2,2]    demand_2  1
    x[2,2]    c_disjunction_2_diajunct_1  32
    x[2,2]    c_disjunction_2_disjunct_2  1
    x[29,2]   OBJ       47.8
    x[29,2]   demand_2  1
    x[29,2]   c_disjunction_29_diajunct_1  32
    x[29,2]   c_disjunction_29_disjunct_2  1
    x[31,2]   OBJ       48.6
    x[31,2]   demand_2  1
    x[31,2]   c_disjunction_31_diajunct_1  32
    x[31,2]   c_disjunction_31_disjunct_2  1
    x[3,3]    demand_3  1
    x[3,3]    c_disjunction_3_diajunct_1  11
    x[3,3]    c_disjunction_3_disjunct_2  1
    x[28,3]   OBJ       15.3
    x[28,3]   demand_3  1
    x[28,3]   c_disjunction_28_diajunct_1  11
    x[28,3]   c_disjunction_28_disjunct_2  1
    x[7,3]    OBJ       15.5
    x[7,3]    demand_3  1
    x[7,3]    c_disjunction_7_diajunct_1  11
    x[7,3]    c_disjunction_7_disjunct_2  1
    x[4,4]    demand_4  1
    x[4,4]    c_disjunction_4_diajunct_1  35
    x[4,4]    c_disjunction_4_disjunct_2  1
    x[2,4]    OBJ       135.2
    x[2,4]    demand_4  1
    x[2,4]    c_disjunction_2_diajunct_1  35
    x[2,4]    c_disjunction_2_disjunct_2  1
    x[17,4]   OBJ       157.8
    x[17,4]   demand_4  1
    x[17,4]   c_disjunction_17_diajunct_1  35
    x[17,4]   c_disjunction_17_disjunct_2  1
    x[5,5]    demand_5  1
    x[5,5]    c_disjunction_5_diajunct_1  13
    x[5,5]    c_disjunction_5_disjunct_2  1
    x[17,5]   OBJ       6.4
    x[17,5]   demand_5  1
    x[17,5]   c_disjunction_17_diajunct_1  13
    x[17,5]   c_disjunction_17_disjunct_2  1
    x[23,5]   OBJ       16.1
    x[23,5]   demand_5  1
    x[23,5]   c_disjunction_23_diajunct_1  13
    x[23,5]   c_disjunction_23_disjunct_2  1
    x[6,6]    demand_6  1
    x[6,6]    c_disjunction_6_diajunct_1  30
    x[6,6]    c_disjunction_6_disjunct_2  1
    x[35,6]   OBJ       14.7
    x[35,6]   demand_6  1
    x[35,6]   c_disjunction_35_diajunct_1  30
    x[35,6]   c_disjunction_35_disjunct_2  1
    x[31,6]   OBJ       20.9
    x[31,6]   demand_6  1
    x[31,6]   c_disjunction_31_diajunct_1  30
    x[31,6]   c_disjunction_31_disjunct_2  1
    x[7,7]    demand_7  1
    x[7,7]    c_disjunction_7_diajunct_1  28
    x[7,7]    c_disjunction_7_disjunct_2  1
    x[3,7]    OBJ       39.5
    x[3,7]    demand_7  1
    x[3,7]    c_disjunction_3_diajunct_1  28
    x[3,7]    c_disjunction_3_disjunct_2  1
    x[28,7]   OBJ       63.7
    x[28,7]   demand_7  1
    x[28,7]   c_disjunction_28_diajunct_1  28
    x[28,7]   c_disjunction_28_disjunct_2  1
    x[8,8]    demand_8  1
    x[8,8]    c_disjunction_8_diajunct_1  10
    x[8,8]    c_disjunction_8_disjunct_2  1
    x[13,8]   OBJ       8.8
    x[13,8]   demand_8  1
    x[13,8]   c_disjunction_13_diajunct_1  10
    x[13,8]   c_disjunction_13_disjunct_2  1
    x[22,8]   OBJ       10.5
    x[22,8]   demand_8  1
    x[22,8]   c_disjunction_22_diajunct_1  10
    x[22,8]   c_disjunction_22_disjunct_2  1
    x[9,9]    demand_9  1
    x[9,9]    c_disjunction_9_diajunct_1  14
    x[9,9]    c_disjunction_9_disjunct_2  1
    x[20,9]   OBJ       14.7
    x[20,9]   demand_9  1
    x[20,9]   c_disjunction_20_diajunct_1  14
    x[20,9]   c_disjunction_20_disjunct_2  1
    x[30,9]   OBJ       18
    x[30,9]   demand_9  1
    x[30,9]   c_disjunction_30_diajunct_1  14
    x[30,9]   c_disjunction_30_disjunct_2  1
    x[10,10]  demand_10  1
    x[10,10]  c_disjunction_10_diajunct_1  34
    x[10,10]  c_disjunction_10_disjunct_2  1
    x[15,10]  OBJ       20.7
    x[15,10]  demand_10  1
    x[15,10]  c_disjunction_15_diajunct_1  34
    x[15,10]  c_disjunction_15_disjunct_2  1
    x[24,10]  OBJ       22.1
    x[24,10]  demand_10  1
    x[24,10]  c_disjunction_24_diajunct_1  34
    x[24,10]  c_disjunction_24_disjunct_2  1
    x[11,11]  demand_11  1
    x[11,11]  c_disjunction_11_diajunct_1  30
    x[11,11]  c_disjunction_11_disjunct_2  1
    x[34,11]  OBJ       19.8
    x[34,11]  demand_11  1
    x[34,11]  c_disjunction_34_diajunct_1  30
    x[34,11]  c_disjunction_34_disjunct_2  1
    x[29,11]  OBJ       32
    x[29,11]  demand_11  1
    x[29,11]  c_disjunction_29_diajunct_1  30
    x[29,11]  c_disjunction_29_disjunct_2  1
    x[12,12]  demand_12  1
    x[12,12]  c_disjunction_12_diajunct_1  12
    x[12,12]  c_disjunction_12_disjunct_2  1
    x[26,12]  OBJ       9.9
    x[26,12]  demand_12  1
    x[26,12]  c_disjunction_26_diajunct_1  12
    x[26,12]  c_disjunction_26_disjunct_2  1
    x[6,12]   OBJ       14.3
    x[6,12]   demand_12  1
    x[6,12]   c_disjunction_6_diajunct_1  12
    x[6,12]   c_disjunction_6_disjunct_2  1
    x[13,13]  demand_13  1
    x[13,13]  c_disjunction_13_diajunct_1  28
    x[13,13]  c_disjunction_13_disjunct_2  1
    x[22,13]  OBJ       6.3
    x[22,13]  demand_13  1
    x[22,13]  c_disjunction_22_diajunct_1  28
    x[22,13]  c_disjunction_22_disjunct_2  1
    x[8,13]   OBJ       24.6
    x[8,13]   demand_13  1
    x[8,13]   c_disjunction_8_diajunct_1  28
    x[8,13]   c_disjunction_8_disjunct_2  1
    x[14,14]  demand_14  1
    x[14,14]  c_disjunction_14_diajunct_1  24
    x[14,14]  c_disjunction_14_disjunct_2  1
    x[25,14]  OBJ       3.5
    x[25,14]  demand_14  1
    x[25,14]  c_disjunction_25_diajunct_1  24
    x[25,14]  c_disjunction_25_disjunct_2  1
    x[33,14]  OBJ       30.1
    x[33,14]  demand_14  1
    x[33,14]  c_disjunction_33_diajunct_1  24
    x[33,14]  c_disjunction_33_disjunct_2  1
    x[15,15]  demand_15  1
    x[15,15]  c_disjunction_15_diajunct_1  17
    x[15,15]  c_disjunction_15_disjunct_2  1
    x[24,15]  OBJ       8.2
    x[24,15]  demand_15  1
    x[24,15]  c_disjunction_24_diajunct_1  17
    x[24,15]  c_disjunction_24_disjunct_2  1
    x[10,15]  OBJ       10.4
    x[10,15]  demand_15  1
    x[10,15]  c_disjunction_10_diajunct_1  17
    x[10,15]  c_disjunction_10_disjunct_2  1
    x[16,16]  demand_16  1
    x[16,16]  c_disjunction_16_diajunct_1  28
    x[16,16]  c_disjunction_16_disjunct_2  1
    x[8,16]   OBJ       44.5
    x[8,16]   demand_16  1
    x[8,16]   c_disjunction_8_diajunct_1  28
    x[8,16]   c_disjunction_8_disjunct_2  1
    x[13,16]  OBJ       46.2
    x[13,16]  demand_16  1
    x[13,16]  c_disjunction_13_diajunct_1  28
    x[13,16]  c_disjunction_13_disjunct_2  1
    x[17,17]  demand_17  1
    x[17,17]  c_disjunction_17_diajunct_1  24
    x[17,17]  c_disjunction_17_disjunct_2  1
    x[5,17]   OBJ       11.8
    x[5,17]   demand_17  1
    x[5,17]   c_disjunction_5_diajunct_1  24
    x[5,17]   c_disjunction_5_disjunct_2  1
    x[23,17]  OBJ       35
    x[23,17]  demand_17  1
    x[23,17]  c_disjunction_23_diajunct_1  24
    x[23,17]  c_disjunction_23_disjunct_2  1
    x[18,18]  demand_18  1
    x[18,18]  c_disjunction_18_diajunct_1  18
    x[18,18]  c_disjunction_18_disjunct_2  1
    x[11,18]  OBJ       26.6
    x[11,18]  demand_18  1
    x[11,18]  c_disjunction_11_diajunct_1  18
    x[11,18]  c_disjunction_11_disjunct_2  1
    x[29,18]  OBJ       32.2
    x[29,18]  demand_18  1
    x[29,18]  c_disjunction_29_diajunct_1  18
    x[29,18]  c_disjunction_29_disjunct_2  1
    x[19,19]  demand_19  1
    x[19,19]  c_disjunction_19_diajunct_1  5
    x[19,19]  c_disjunction_19_disjunct_2  1
    x[22,19]  OBJ       5
    x[22,19]  demand_19  1
    x[22,19]  c_disjunction_22_diajunct_1  5
    x[22,19]  c_disjunction_22_disjunct_2  1
    x[13,19]  OBJ       6.1
    x[13,19]  demand_19  1
    x[13,19]  c_disjunction_13_diajunct_1  5
    x[13,19]  c_disjunction_13_disjunct_2  1
    x[20,20]  demand_20  1
    x[20,20]  c_disjunction_20_diajunct_1  12
    x[20,20]  c_disjunction_20_disjunct_2  1
    x[1,20]   OBJ       6.1
    x[1,20]   demand_20  1
    x[1,20]   c_disjunction_1_diajunct_1  12
    x[1,20]   c_disjunction_1_disjunct_2  1
    x[9,20]   OBJ       12.6
    x[9,20]   demand_20  1
    x[9,20]   c_disjunction_9_diajunct_1  12
    x[9,20]   c_disjunction_9_disjunct_2  1
    x[21,21]  demand_21  1
    x[21,21]  c_disjunction_21_diajunct_1  22
    x[21,21]  c_disjunction_21_disjunct_2  1
    x[8,21]   OBJ       35.6
    x[8,21]   demand_21  1
    x[8,21]   c_disjunction_8_diajunct_1  22
    x[8,21]   c_disjunction_8_disjunct_2  1
    x[33,21]  OBJ       52.8
    x[33,21]  demand_21  1
    x[33,21]  c_disjunction_33_diajunct_1  22
    x[33,21]  c_disjunction_33_disjunct_2  1
    x[22,22]  demand_22  1
    x[22,22]  c_disjunction_22_diajunct_1  33
    x[22,22]  c_disjunction_22_disjunct_2  1
    x[13,22]  OBJ       7.4
    x[13,22]  demand_22  1
    x[13,22]  c_disjunction_13_diajunct_1  33
    x[13,22]  c_disjunction_13_disjunct_2  1
    x[19,22]  OBJ       33.2
    x[19,22]  demand_22  1
    x[19,22]  c_disjunction_19_diajunct_1  33
    x[19,22]  c_disjunction_19_disjunct_2  1
    x[23,23]  demand_23  1
    x[23,23]  c_disjunction_23_diajunct_1  33
    x[23,23]  c_disjunction_23_disjunct_2  1
    x[5,23]   OBJ       40.9
    x[5,23]   demand_23  1
    x[5,23]   c_disjunction_5_diajunct_1  33
    x[5,23]   c_disjunction_5_disjunct_2  1
    x[17,23]  OBJ       48.1
    x[17,23]  demand_23  1
    x[17,23]  c_disjunction_17_diajunct_1  33
    x[17,23]  c_disjunction_17_disjunct_2  1
    x[24,24]  demand_24  1
    x[24,24]  c_disjunction_24_diajunct_1  8
    x[24,24]  c_disjunction_24_disjunct_2  1
    x[15,24]  OBJ       3.8
    x[15,24]  demand_24  1
    x[15,24]  c_disjunction_15_diajunct_1  8
    x[15,24]  c_disjunction_15_disjunct_2  1
    x[10,24]  OBJ       5.2
    x[10,24]  demand_24  1
    x[10,24]  c_disjunction_10_diajunct_1  8
    x[10,24]  c_disjunction_10_disjunct_2  1
    x[25,25]  demand_25  1
    x[25,25]  c_disjunction_25_diajunct_1  19
    x[25,25]  c_disjunction_25_disjunct_2  1
    x[14,25]  OBJ       2.8
    x[14,25]  demand_25  1
    x[14,25]  c_disjunction_14_diajunct_1  19
    x[14,25]  c_disjunction_14_disjunct_2  1
    x[33,25]  OBJ       21.1
    x[33,25]  demand_25  1
    x[33,25]  c_disjunction_33_diajunct_1  19
    x[33,25]  c_disjunction_33_disjunct_2  1
    x[26,26]  demand_26  1
    x[26,26]  c_disjunction_26_diajunct_1  18
    x[26,26]  c_disjunction_26_disjunct_2  1
    x[12,26]  OBJ       14.9
    x[12,26]  demand_26  1
    x[12,26]  c_disjunction_12_diajunct_1  18
    x[12,26]  c_disjunction_12_disjunct_2  1
    x[32,26]  OBJ       23.7
    x[32,26]  demand_26  1
    x[32,26]  c_disjunction_32_diajunct_1  18
    x[32,26]  c_disjunction_32_disjunct_2  1
    x[27,27]  demand_27  1
    x[27,27]  c_disjunction_27_diajunct_1  28
    x[27,27]  c_disjunction_27_disjunct_2  1
    x[36,27]  OBJ       17.6
    x[36,27]  demand_27  1
    x[36,27]  c_disjunction_36_diajunct_1  28
    x[36,27]  c_disjunction_36_disjunct_2  1
    x[33,27]  OBJ       55.3
    x[33,27]  demand_27  1
    x[33,27]  c_disjunction_33_diajunct_1  28
    x[33,27]  c_disjunction_33_disjunct_2  1
    x[28,28]  demand_28  1
    x[28,28]  c_disjunction_28_diajunct_1  26
    x[28,28]  c_disjunction_28_disjunct_2  1
    x[3,28]   OBJ       36.2
    x[3,28]   demand_28  1
    x[3,28]   c_disjunction_3_diajunct_1  26
    x[3,28]   c_disjunction_3_disjunct_2  1
    x[7,28]   OBJ       59.1
    x[7,28]   demand_28  1
    x[7,28]   c_disjunction_7_diajunct_1  26
    x[7,28]   c_disjunction_7_disjunct_2  1
    x[29,29]  demand_29  1
    x[29,29]  c_disjunction_29_diajunct_1  30
    x[29,29]  c_disjunction_29_disjunct_2  1
    x[31,29]  OBJ       14
    x[31,29]  demand_29  1
    x[31,29]  c_disjunction_31_diajunct_1  30
    x[31,29]  c_disjunction_31_disjunct_2  1
    x[34,29]  OBJ       15.9
    x[34,29]  demand_29  1
    x[34,29]  c_disjunction_34_diajunct_1  30
    x[34,29]  c_disjunction_34_disjunct_2  1
    x[30,30]  demand_30  1
    x[30,30]  c_disjunction_30_diajunct_1  21
    x[30,30]  c_disjunction_30_disjunct_2  1
    x[32,30]  OBJ       26.7
    x[32,30]  demand_30  1
    x[32,30]  c_disjunction_32_diajunct_1  21
    x[32,30]  c_disjunction_32_disjunct_2  1
    x[9,30]   OBJ       27
    x[9,30]   demand_30  1
    x[9,30]   c_disjunction_9_diajunct_1  21
    x[9,30]   c_disjunction_9_disjunct_2  1
    x[31,31]  demand_31  1
    x[31,31]  c_disjunction_31_diajunct_1  18
    x[31,31]  c_disjunction_31_disjunct_2  1
    x[35,31]  OBJ       4.7
    x[35,31]  demand_31  1
    x[35,31]  c_disjunction_35_diajunct_1  18
    x[35,31]  c_disjunction_35_disjunct_2  1
    x[29,31]  OBJ       8.4
    x[29,31]  demand_31  1
    x[29,31]  c_disjunction_29_diajunct_1  18
    x[29,31]  c_disjunction_29_disjunct_2  1
    x[32,32]  demand_32  1
    x[32,32]  c_disjunction_32_diajunct_1  28
    x[32,32]  c_disjunction_32_disjunct_2  1
    x[24,32]  OBJ       20.8
    x[24,32]  demand_32  1
    x[24,32]  c_disjunction_24_diajunct_1  28
    x[24,32]  c_disjunction_24_disjunct_2  1
    x[15,32]  OBJ       34.1
    x[15,32]  demand_32  1
    x[15,32]  c_disjunction_15_diajunct_1  28
    x[15,32]  c_disjunction_15_disjunct_2  1
    x[33,33]  demand_33  1
    x[33,33]  c_disjunction_33_diajunct_1  18
    x[33,33]  c_disjunction_33_disjunct_2  1
    x[25,33]  OBJ       20
    x[25,33]  demand_33  1
    x[25,33]  c_disjunction_25_diajunct_1  18
    x[25,33]  c_disjunction_25_disjunct_2  1
    x[14,33]  OBJ       22.6
    x[14,33]  demand_33  1
    x[14,33]  c_disjunction_14_diajunct_1  18
    x[14,33]  c_disjunction_14_disjunct_2  1
    x[34,34]  demand_34  1
    x[34,34]  c_disjunction_34_diajunct_1  16
    x[34,34]  c_disjunction_34_disjunct_2  1
    x[31,34]  OBJ       7.9
    x[31,34]  demand_34  1
    x[31,34]  c_disjunction_31_diajunct_1  16
    x[31,34]  c_disjunction_31_disjunct_2  1
    x[29,34]  OBJ       8.5
    x[29,34]  demand_34  1
    x[29,34]  c_disjunction_29_diajunct_1  16
    x[29,34]  c_disjunction_29_disjunct_2  1
    x[35,35]  demand_35  1
    x[35,35]  c_disjunction_35_diajunct_1  18
    x[35,35]  c_disjunction_35_disjunct_2  1
    x[31,35]  OBJ       4.7
    x[31,35]  demand_35  1
    x[31,35]  c_disjunction_31_diajunct_1  18
    x[31,35]  c_disjunction_31_disjunct_2  1
    x[6,35]   OBJ       8.8
    x[6,35]   demand_35  1
    x[6,35]   c_disjunction_6_diajunct_1  18
    x[6,35]   c_disjunction_6_disjunct_2  1
    x[36,36]  demand_36  1
    x[36,36]  c_disjunction_36_diajunct_1  22
    x[36,36]  c_disjunction_36_disjunct_2  1
    x[27,36]  OBJ       13.8
    x[27,36]  demand_36  1
    x[27,36]  c_disjunction_27_diajunct_1  22
    x[27,36]  c_disjunction_27_disjunct_2  1
    x[33,36]  OBJ       30.3
    x[33,36]  demand_36  1
    x[33,36]  c_disjunction_33_diajunct_1  22
    x[33,36]  c_disjunction_33_disjunct_2  1
    MARKER    'MARKER'                 'INTEND'
RHS
    RHS1      demand_1  1
    RHS1      demand_2  1
    RHS1      demand_3  1
    RHS1      demand_4  1
    RHS1      demand_5  1
    RHS1      demand_6  1
    RHS1      demand_7  1
    RHS1      demand_8  1
    RHS1      demand_9  1
    RHS1      demand_10  1
    RHS1      demand_11  1
    RHS1      demand_12  1
    RHS1      demand_13  1
    RHS1      demand_14  1
    RHS1      demand_15  1
    RHS1      demand_16  1
    RHS1      demand_17  1
    RHS1      demand_18  1
    RHS1      demand_19  1
    RHS1      demand_20  1
    RHS1      demand_21  1
    RHS1      demand_22  1
    RHS1      demand_23  1
    RHS1      demand_24  1
    RHS1      demand_25  1
    RHS1      demand_26  1
    RHS1      demand_27  1
    RHS1      demand_28  1
    RHS1      demand_29  1
    RHS1      demand_30  1
    RHS1      demand_31  1
    RHS1      demand_32  1
    RHS1      demand_33  1
    RHS1      demand_34  1
    RHS1      demand_35  1
    RHS1      demand_36  1
    RHS1      c_disjunction_1_disjunct_2  2
    RHS1      R38       1
    RHS1      c_disjunction_2_disjunct_2  2
    RHS1      R41       1
    RHS1      c_disjunction_3_disjunct_2  3
    RHS1      R44       1
    RHS1      c_disjunction_4_disjunct_2  1
    RHS1      R47       1
    RHS1      c_disjunction_5_disjunct_2  3
    RHS1      R50       1
    RHS1      c_disjunction_6_disjunct_2  3
    RHS1      R53       1
    RHS1      c_disjunction_7_disjunct_2  3
    RHS1      R56       1
    RHS1      c_disjunction_8_disjunct_2  4
    RHS1      R59       1
    RHS1      c_disjunction_9_disjunct_2  4
    RHS1      R62       1
    RHS1      c_disjunction_10_disjunct_2  3
    RHS1      R65       1
    RHS1      c_disjunction_11_disjunct_2  2
    RHS1      R68       1
    RHS1      c_disjunction_12_disjunct_2  2
    RHS1      R71       1
    RHS1      c_disjunction_13_disjunct_2  5
    RHS1      R74       1
    RHS1      c_disjunction_14_disjunct_2  3
    RHS1      R77       1
    RHS1      c_disjunction_15_disjunct_2  4
    RHS1      R80       1
    RHS1      c_disjunction_16_disjunct_2  1
    RHS1      R83       1
    RHS1      c_disjunction_17_disjunct_2  4
    RHS1      R86       1
    RHS1      c_disjunction_18_disjunct_2  1
    RHS1      R89       1
    RHS1      c_disjunction_19_disjunct_2  2
    RHS1      R92       1
    RHS1      c_disjunction_20_disjunct_2  3
    RHS1      R95       1
    RHS1      c_disjunction_21_disjunct_2  1
    RHS1      R98       1
    RHS1      c_disjunction_22_disjunct_2  4
    RHS1      R101      1
    RHS1      c_disjunction_23_disjunct_2  3
    RHS1      R104      1
    RHS1      c_disjunction_24_disjunct_2  4
    RHS1      R107      1
    RHS1      c_disjunction_25_disjunct_2  3
    RHS1      R110      1
    RHS1      c_disjunction_26_disjunct_2  2
    RHS1      R113      1
    RHS1      c_disjunction_27_disjunct_2  2
    RHS1      R116      1
    RHS1      c_disjunction_28_disjunct_2  3
    RHS1      R119      1
    RHS1      c_disjunction_29_disjunct_2  6
    RHS1      R122      1
    RHS1      c_disjunction_30_disjunct_2  2
    RHS1      R125      1
    RHS1      c_disjunction_31_disjunct_2  6
    RHS1      R128      1
    RHS1      c_disjunction_32_disjunct_2  3
    RHS1      R131      1
    RHS1      c_disjunction_33_disjunct_2  6
    RHS1      R134      1
    RHS1      c_disjunction_34_disjunct_2  3
    RHS1      R137      1
    RHS1      c_disjunction_35_disjunct_2  3
    RHS1      R140      1
    RHS1      c_disjunction_36_disjunct_2  2
    RHS1      R143      1
BOUNDS
 BV BND1      ind_disjunction_1_disjunct_1
 BV BND1      ind_disjunction_2_disjunct_1
 BV BND1      ind_disjunction_3_disjunct_1
 BV BND1      ind_disjunction_4_disjunct_1
 BV BND1      ind_disjunction_5_disjunct_1
 BV BND1      ind_disjunction_6_disjunct_1
 BV BND1      ind_disjunction_7_disjunct_1
 BV BND1      ind_disjunction_8_disjunct_1
 BV BND1      ind_disjunction_9_disjunct_1
 BV BND1      ind_disjunction_10_disjunct_1
 BV BND1      ind_disjunction_11_disjunct_1
 BV BND1      ind_disjunction_12_disjunct_1
 BV BND1      ind_disjunction_13_disjunct_1
 BV BND1      ind_disjunction_14_disjunct_1
 BV BND1      ind_disjunction_15_disjunct_1
 BV BND1      ind_disjunction_16_disjunct_1
 BV BND1      ind_disjunction_17_disjunct_1
 BV BND1      ind_disjunction_18_disjunct_1
 BV BND1      ind_disjunction_19_disjunct_1
 BV BND1      ind_disjunction_20_disjunct_1
 BV BND1      ind_disjunction_21_disjunct_1
 BV BND1      ind_disjunction_22_disjunct_1
 BV BND1      ind_disjunction_23_disjunct_1
 BV BND1      ind_disjunction_24_disjunct_1
 BV BND1      ind_disjunction_25_disjunct_1
 BV BND1      ind_disjunction_26_disjunct_1
 BV BND1      ind_disjunction_27_disjunct_1
 BV BND1      ind_disjunction_28_disjunct_1
 BV BND1      ind_disjunction_29_disjunct_1
 BV BND1      ind_disjunction_30_disjunct_1
 BV BND1      ind_disjunction_31_disjunct_1
 BV BND1      ind_disjunction_32_disjunct_1
 BV BND1      ind_disjunction_33_disjunct_1
 BV BND1      ind_disjunction_34_disjunct_1
 BV BND1      ind_disjunction_35_disjunct_1
 BV BND1      ind_disjunction_36_disjunct_1
 BV BND1      ind_disjunction_1_disjunct_2
 BV BND1      ind_disjunction_2_disjunct_2
 BV BND1      ind_disjunction_3_disjunct_2
 BV BND1      ind_disjunction_4_disjunct_2
 BV BND1      ind_disjunction_5_disjunct_2
 BV BND1      ind_disjunction_6_disjunct_2
 BV BND1      ind_disjunction_7_disjunct_2
 BV BND1      ind_disjunction_8_disjunct_2
 BV BND1      ind_disjunction_9_disjunct_2
 BV BND1      ind_disjunction_10_disjunct_2
 BV BND1      ind_disjunction_11_disjunct_2
 BV BND1      ind_disjunction_12_disjunct_2
 BV BND1      ind_disjunction_13_disjunct_2
 BV BND1      ind_disjunction_14_disjunct_2
 BV BND1      ind_disjunction_15_disjunct_2
 BV BND1      ind_disjunction_16_disjunct_2
 BV BND1      ind_disjunction_17_disjunct_2
 BV BND1      ind_disjunction_18_disjunct_2
 BV BND1      ind_disjunction_19_disjunct_2
 BV BND1      ind_disjunction_20_disjunct_2
 BV BND1      ind_disjunction_21_disjunct_2
 BV BND1      ind_disjunction_22_disjunct_2
 BV BND1      ind_disjunction_23_disjunct_2
 BV BND1      ind_disjunction_24_disjunct_2
 BV BND1      ind_disjunction_25_disjunct_2
 BV BND1      ind_disjunction_26_disjunct_2
 BV BND1      ind_disjunction_27_disjunct_2
 BV BND1      ind_disjunction_28_disjunct_2
 BV BND1      ind_disjunction_29_disjunct_2
 BV BND1      ind_disjunction_30_disjunct_2
 BV BND1      ind_disjunction_31_disjunct_2
 BV BND1      ind_disjunction_32_disjunct_2
 BV BND1      ind_disjunction_33_disjunct_2
 BV BND1      ind_disjunction_34_disjunct_2
 BV BND1      ind_disjunction_35_disjunct_2
 BV BND1      ind_disjunction_36_disjunct_2
 BV BND1      x[1,1]  
 BV BND1      x[20,1] 
 BV BND1      x[9,1]  
 BV BND1      x[2,2]  
 BV BND1      x[29,2] 
 BV BND1      x[31,2] 
 BV BND1      x[3,3]  
 BV BND1      x[28,3] 
 BV BND1      x[7,3]  
 BV BND1      x[4,4]  
 BV BND1      x[2,4]  
 BV BND1      x[17,4] 
 BV BND1      x[5,5]  
 BV BND1      x[17,5] 
 BV BND1      x[23,5] 
 BV BND1      x[6,6]  
 BV BND1      x[35,6] 
 BV BND1      x[31,6] 
 BV BND1      x[7,7]  
 BV BND1      x[3,7]  
 BV BND1      x[28,7] 
 BV BND1      x[8,8]  
 BV BND1      x[13,8] 
 BV BND1      x[22,8] 
 BV BND1      x[9,9]  
 BV BND1      x[20,9] 
 BV BND1      x[30,9] 
 BV BND1      x[10,10]
 BV BND1      x[15,10]
 BV BND1      x[24,10]
 BV BND1      x[11,11]
 BV BND1      x[34,11]
 BV BND1      x[29,11]
 BV BND1      x[12,12]
 BV BND1      x[26,12]
 BV BND1      x[6,12] 
 BV BND1      x[13,13]
 BV BND1      x[22,13]
 BV BND1      x[8,13] 
 BV BND1      x[14,14]
 BV BND1      x[25,14]
 BV BND1      x[33,14]
 BV BND1      x[15,15]
 BV BND1      x[24,15]
 BV BND1      x[10,15]
 BV BND1      x[16,16]
 BV BND1      x[8,16] 
 BV BND1      x[13,16]
 BV BND1      x[17,17]
 BV BND1      x[5,17] 
 BV BND1      x[23,17]
 BV BND1      x[18,18]
 BV BND1      x[11,18]
 BV BND1      x[29,18]
 BV BND1      x[19,19]
 BV BND1      x[22,19]
 BV BND1      x[13,19]
 BV BND1      x[20,20]
 BV BND1      x[1,20] 
 BV BND1      x[9,20] 
 BV BND1      x[21,21]
 BV BND1      x[8,21] 
 BV BND1      x[33,21]
 BV BND1      x[22,22]
 BV BND1      x[13,22]
 BV BND1      x[19,22]
 BV BND1      x[23,23]
 BV BND1      x[5,23] 
 BV BND1      x[17,23]
 BV BND1      x[24,24]
 BV BND1      x[15,24]
 BV BND1      x[10,24]
 BV BND1      x[25,25]
 BV BND1      x[14,25]
 BV BND1      x[33,25]
 BV BND1      x[26,26]
 BV BND1      x[12,26]
 BV BND1      x[32,26]
 BV BND1      x[27,27]
 BV BND1      x[36,27]
 BV BND1      x[33,27]
 BV BND1      x[28,28]
 BV BND1      x[3,28] 
 BV BND1      x[7,28] 
 BV BND1      x[29,29]
 BV BND1      x[31,29]
 BV BND1      x[34,29]
 BV BND1      x[30,30]
 BV BND1      x[32,30]
 BV BND1      x[9,30] 
 BV BND1      x[31,31]
 BV BND1      x[35,31]
 BV BND1      x[29,31]
 BV BND1      x[32,32]
 BV BND1      x[24,32]
 BV BND1      x[15,32]
 BV BND1      x[33,33]
 BV BND1      x[25,33]
 BV BND1      x[14,33]
 BV BND1      x[34,34]
 BV BND1      x[31,34]
 BV BND1      x[29,34]
 BV BND1      x[35,35]
 BV BND1      x[31,35]
 BV BND1      x[6,35] 
 BV BND1      x[36,36]
 BV BND1      x[27,36]
 BV BND1      x[33,36]
ENDATA
